127
1000
249
91
217
121
16
247
94
116
57
56
38
109
1
92
57
11
161
230
141
186
242
6
12
178
108
96
122
182
60
249
47
238
61
165
148
215
90
168
113
133
184
44
56
166
131
40
151
47
168
248
9
107
117
55
40
148
193
138
57
241
28
68
54
183
15
40
104
10
114
77
187
249
17
46
4
240
81
156
34
231
6
87
40
39
190
239
90
108
96
227
21
18
38
239
185
227
118
161
154
44
205
117
131
55
166
91
108
7
144
157
5
194
146
59
157
85
129
208
73
120
118
56
173
106
249
189
224
